NAME : KROC99C.26065.tour
COMMENT : Cost = 0_26065
COMMENT : Found by LKH [Keld Helsgaun] Sun Sep 17 16:52:41 2017
TYPE : TOUR
DIMENSION : 99
TOUR_SECTION
1
84
40
45
48
18
26
9
16
50
43
91
98
14
36
56
33
99
73
68
41
30
67
35
23
69
90
93
94
85
49
82
61
71
70
5
42
55
38
39
28
87
97
57
34
89
25
17
8
22
74
53
6
46
54
20
63
66
31
64
79
76
2
75
21
88
58
72
3
59
4
92
19
10
44
80
96
95
86
51
11
83
47
65
62
77
81
7
32
24
60
37
29
12
27
13
78
15
52
-1
EOF
